(set-info :smt-lib-version 2.6)
(set-logic UFLIA)
(set-info :source |Benchmarks from the paper: "Extending Sledgehammer with SMT Solvers" by Jasmin Blanchette, Sascha Bohme, and Lawrence C. Paulson, CADE 2011.  Translated to SMT2 by Andrew Reynolds and Morgan Deters.|)
(set-info :category "industrial")
(set-info :status unknown)
(declare-sort S1 0)
(declare-sort S2 0)
(declare-sort S3 0)
(declare-sort S4 0)
(declare-sort S5 0)
(declare-sort S6 0)
(declare-sort S7 0)
(declare-sort S8 0)
(declare-sort S9 0)
(declare-sort S10 0)
(declare-sort S11 0)
(declare-fun f1 () S1)
(declare-fun f2 () S1)
(declare-fun f3 (S2 S2) S1)
(declare-fun f4 (S3 S2) S2)
(declare-fun f5 (S4 S5) S3)
(declare-fun f6 () S4)
(declare-fun f7 () S5)
(declare-fun f8 () S2)
(declare-fun f9 (S4 S6) S2)
(declare-fun f10 () S6)
(declare-fun f11 (S6) S1)
(declare-fun f12 (S7 S8) Int)
(declare-fun f13 () S7)
(declare-fun f14 () S8)
(declare-fun f15 (S9 S2) S8)
(declare-fun f16 () S9)
(declare-fun f17 (S10 Int) S8)
(declare-fun f18 () S10)
(declare-fun f19 (S5 S6) S1)
(declare-fun f20 (S3 S2) S1)
(declare-fun f21 (S11 S2) S3)
(declare-fun f22 () S11)
(declare-fun f23 () S2)
(assert (not (= f1 f2)))
(assert (not (= (f3 (f4 (f5 f6 f7) f8) (f9 f6 f10)) f1)))
(assert (= (f11 f10) f1))
(assert (= (f3 f8 (f9 f6 f10)) f1))
(assert (<= (+ (f12 f13 f14) 1) (f12 f13 (f15 f16 (f9 f6 f10)))))
(assert (= (f15 f16 f8) (f17 f18 (- (f12 f13 (f15 f16 (f9 f6 f10))) (+ (f12 f13 f14) 1)))))
(assert (= (f19 f7 f10) f1))
(assert (not (= (f20 (f5 f6 f7) f8) f1)))
(assert (forall ((?v0 S3)) (= (f21 f22 (f4 ?v0 f23)) ?v0)))
(assert (forall ((?v0 S5) (?v1 S6) (?v2 S3) (?v3 S4)) (=> (= (f19 ?v0 ?v1) f1) (=> (= ?v2 (f5 ?v3 ?v0)) (= (f20 ?v2 (f9 ?v3 ?v1)) f1)))))
(assert (forall ((?v0 S8)) (= (f17 f18 (f12 f13 ?v0)) ?v0)))
(assert (forall ((?v0 Int)) (=> (<= 0 ?v0) (= (f12 f13 (f17 f18 ?v0)) ?v0))))
(assert (forall ((?v0 Int)) (=> (< ?v0 0) (= (f12 f13 (f17 f18 ?v0)) 0))))
(check-sat)
(exit)
